Problem:    
Rows:       248
Columns:    89 (72 integer, 72 binary)
Non-zeros:  820
Status:     INTEGER OPTIMAL
Objective:  value = 159.18705 (MINimum)

   No.   Row name        Activity     Lower bound   Upper bound
------ ------------    ------------- ------------- -------------
     1 r.5                   2159.19             0               
     2 r.6                   -1975.4      -1976.51               
     3 r.7                   159.187             0               
     4 r.8                  -1698.33      -1962.75               
     5 r.9                   2159.19             0               
     6 r.10                 -1947.79      -1975.39               
     7 r.11                  159.187             0               
     8 r.12                 -1738.58      -1961.75               
     9 r.13                  2159.19             0               
    10 r.14                 -1905.07      -1957.28               
    11 r.15                  159.187             0               
    12 r.16                 -1776.83      -1936.02               
    13 r.17                  159.187             0               
    14 r.18                 -21.5193      -1977.25               
    15 r.19                  2159.19             0               
    16 r.20                 -1962.79         -1963               
    17 r.21                  159.187             0               
    18 r.22                 -56.2677      -1978.85               
    19 r.23                  2159.19             0               
    20 r.24                 -1910.72      -1967.59               
    21 r.25                  159.187             0               
    22 r.26                  27.5969      -1938.88               
    23 r.27                  2159.19             0               
    24 r.28                 -1840.81      -1933.09               
    25 r.29                  2159.19             0               
    26 r.30                 -1840.81      -1938.74               
    27 r.31                  159.187             0               
    28 r.32                  92.2802      -1933.02               
    29 r.33                  2159.19             0               
    30 r.34                 -1998.89      -1998.89               
    31 r.35                  159.187             0               
    32 r.36                 -1988.69      -1988.69               
    33 r.37                        1             1             = 
    34 r.38                        1             1             = 
    35 r.39                        1             1             = 
    36 r.40                        1             1             = 
    37 r.41                        1             1             = 
    38 r.42                        1             1             = 
    39 r.43                        1             1             = 
    40 r.44                        1             1             = 
    41 r.45                  24.6113       24.6114               
    42 r.46                 -24.6113      -1976.51               
    43 r.47                  1962.75       38.2525               
    44 r.48                 -1962.75      -1962.75               
    45 r.49                  67.3301       42.7188               
    46 r.50                 -67.3301      -1976.51               
    47 r.51                   1924.5       63.9834               
    48 r.52                  -1924.5      -1962.75               
    49 r.53                  1944.88       22.7484               
    50 r.54                 -1938.88      -1976.51               
    51 r.55                  1744.53       36.9971               
    52 r.56                 -1750.53      -1962.75               
    53 r.57                  1916.14        21.148               
    54 r.58                 -1916.14      -1976.51               
    55 r.59                  1790.61       32.4136               
    56 r.60                 -1790.61      -1962.75               
    57 r.61                        0      -1935.88               
    58 r.62                 -1868.41      -1930.09               
    59 r.63                  1728.92      -1935.88               
    60 r.64                 -139.486      -1930.09               
    61 r.65                   131.59         61.26               
    62 r.66                  -131.59      -1976.51               
    63 r.67                  1793.61       66.9786               
    64 r.68                 -1793.61      -1962.75               
    65 r.69                 -1973.51      -1973.51               
    66 r.70                 -1702.43      -1959.75               
    67 r.71                  16.2867      -1973.51               
    68 r.72                  287.363      -1959.75               
    69 r.73                  1972.39       23.4905               
    70 r.74                 -1975.39      -1975.39               
    71 r.75                  40.2505       37.2505               
    72 r.76                 -37.2505      -1961.75               
    73 r.77                  42.7188       42.7188               
    74 r.78                 -42.7188      -1975.39               
    75 r.79                  1961.75       63.9834               
    76 r.80                 -1961.75      -1961.75               
    77 r.81                  1920.27       22.7484               
    78 r.82                 -1914.27      -1975.39               
    79 r.83                  1781.79       36.9971               
    80 r.84                 -1787.79      -1961.75               
    81 r.85                  1891.52        21.148               
    82 r.86                 -1891.52      -1975.39               
    83 r.87                  1827.86       32.4136               
    84 r.88                 -1827.86      -1961.75               
    85 r.89                  1975.39       61.1162               
    86 r.90                 -1975.39      -1975.39               
    87 r.91                  1897.76       66.9068               
    88 r.92                 -1897.76      -1961.75               
    89 r.93                 -1893.02      -1935.74               
    90 r.94                   40.072      -1930.02               
    91 r.95                 -102.236      -1935.74               
    92 r.96                  1830.86      -1930.02               
    93 r.97                  -1948.9      -1972.39               
    94 r.98                 -1739.68      -1958.75               
    95 r.99                   40.898      -1972.39               
    96 r.100                 250.113      -1958.75               
    97 r.101                 1929.67       23.4905               
    98 r.102                -1932.67      -1957.28               
    99 r.103                 78.5029       37.2505               
   100 r.104                -75.5029      -1936.02               
   101 r.105                 1957.28       24.6114               
   102 r.106                -1957.28      -1957.28               
   103 r.107                 38.2524       38.2525               
   104 r.108                -38.2524      -1936.02               
   105 r.109                -1871.55      -1954.28               
   106 r.110                -1743.31      -1933.02               
   107 r.111                -1954.28      -1954.28               
   108 r.112                -1826.04      -1933.02               
   109 r.113                 1848.81        21.148               
   110 r.114                -1848.81      -1957.28               
   111 r.115                 1866.11       32.4136               
   112 r.116                -1866.11      -1936.02               
   113 r.117                 1932.67       61.1162               
   114 r.118                -1932.67      -1957.28               
   115 r.119                 1936.02       66.9068               
   116 r.120                -1936.02      -1936.02               
   117 r.121                -1935.74      -1935.74               
   118 r.122                 -2.6468      -1930.02               
   119 r.123                -63.9834      -1935.74               
   120 r.124                 1869.11      -1930.02               
   121 r.125                -1906.18      -1954.28               
   122 r.126                -1777.94      -1933.02               
   123 r.127                 83.6168      -1954.28               
   124 r.128                  211.86      -1933.02               
   125 r.129                 58.1162       23.4905               
   126 r.130                -61.1162      -1977.25               
   127 r.131                 252.465       37.2505               
   128 r.132                -249.465         -1963               
   129 r.133                 85.7275       24.6114               
   130 r.134                -85.7275      -1977.25               
   131 r.135                 212.215       38.2525               
   132 r.136                -212.215         -1963               
   133 r.137                -1871.55      -1954.28               
   134 r.138                -1743.31      -1933.02               
   135 r.139                -1954.28      -1954.28               
   136 r.140                -1826.04      -1933.02               
   137 r.141                 1977.25        21.148               
   138 r.142                -1977.25      -1977.25               
   139 r.143                  40.072       32.4136               
   140 r.144                 -40.072         -1963               
   141 r.145                 61.1162       61.1162               
   142 r.146                -61.1162      -1977.25               
   143 r.147                 109.979       66.9068               
   144 r.148                -109.979         -1963               
   145 r.149                -1807.29      -1935.74               
   146 r.150                   125.8      -1930.02               
   147 r.151                -1890.02      -1935.74               
   148 r.152                  43.072      -1930.02               
   149 r.153                -34.6257      -1971.25               
   150 r.154                 -1951.9         -1957               
   151 r.155                 1955.17      -1971.25               
   152 r.156                  37.898         -1957               
   153 r.157                 80.8646       23.4905               
   154 r.158                -83.8646      -1978.85               
   155 r.159                 212.393       37.2505               
   156 r.160                -209.393      -1967.59               
   157 r.161                 108.476       24.6114               
   158 r.162                -108.476      -1978.85               
   159 r.163                 172.143       38.2525               
   160 r.164                -172.143      -1967.59               
   161 r.165                 151.195       42.7188               
   162 r.166                -151.195      -1978.85               
   163 r.167                  133.89       63.9834               
   164 r.168                 -133.89      -1967.59               
   165 r.169                 28.7484       22.7484               
   166 r.170                -22.7484      -1978.85               
   167 r.171                 1953.93       36.9971               
   168 r.172                -1959.93      -1967.59               
   169 r.173                 83.8646      -1935.88               
   170 r.174                -1784.55      -1930.09               
   171 r.175                -61.6834      -1935.88               
   172 r.176                -1930.09      -1930.09               
   173 r.177                -1784.55      -1935.74               
   174 r.178                 148.548      -1930.02               
   175 r.179                -1930.09      -1935.74               
   176 r.180                       3      -1930.02               
   177 r.181                -57.3741      -1972.85               
   178 r.182                -1911.83      -1961.59               
   179 r.183                 1932.42      -1972.85               
   180 r.184                   77.97      -1961.59               
   181 r.185                       0      -1935.88               
   182 r.186                -1868.41      -1930.09               
   183 r.187                 1728.92      -1935.88               
   184 r.188                -139.486      -1930.09               
   185 r.189                 24.6114       24.6114               
   186 r.190                -24.6114      -1938.88               
   187 r.191                 102.236       38.2525               
   188 r.192                -102.236      -1933.09               
   189 r.193                 67.3302       42.7188               
   190 r.194                -67.3302      -1938.88               
   191 r.195                 63.9834       63.9834               
   192 r.196                -63.9834      -1933.09               
   193 r.197                 1944.88       22.7484               
   194 r.198                -1938.88      -1938.88               
   195 r.199                 1884.02       36.9971               
   196 r.200                -1890.02      -1933.09               
   197 r.201                 83.8646      -1935.88               
   198 r.202                -1784.55      -1930.09               
   199 r.203                -61.6834      -1935.88               
   200 r.204                -1930.09      -1930.09               
   201 r.205                  131.59         61.26               
   202 r.206                 -131.59      -1938.88               
   203 r.207                 1933.09       66.9786               
   204 r.208                -1933.09      -1933.09               
   205 r.209                 1865.41       23.4905               
   206 r.210                -1868.41      -1938.74               
   207 r.211                 209.393       37.2505               
   208 r.212                -206.393      -1933.02               
   209 r.213                -1893.02      -1935.74               
   210 r.214                  40.072      -1930.02               
   211 r.215                -102.236      -1935.74               
   212 r.216                 1830.86      -1930.02               
   213 r.217                -1935.74      -1935.74               
   214 r.218                 -2.6468      -1930.02               
   215 r.219                -63.9834      -1935.74               
   216 r.220                 1869.11      -1930.02               
   217 r.221                -1807.29      -1935.74               
   218 r.222                   125.8      -1930.02               
   219 r.223                -1890.02      -1935.74               
   220 r.224                  43.072      -1930.02               
   221 r.225                -1784.55      -1935.74               
   222 r.226                 148.548      -1930.02               
   223 r.227                -1930.09      -1935.74               
   224 r.228                       3      -1930.02               
   225 r.229                 1868.41       61.1162               
   226 r.230                -1868.41      -1938.74               
   227 r.231                 66.9068       66.9068               
   228 r.232                -66.9068      -1933.02               
   229 r.233                -1973.51      -1973.51               
   230 r.234                -1702.43      -1959.75               
   231 r.235                 16.2867      -1973.51               
   232 r.236                 287.363      -1959.75               
   233 r.237                 -1948.9      -1972.39               
   234 r.238                -1739.68      -1958.75               
   235 r.239                  40.898      -1972.39               
   236 r.240                 250.113      -1958.75               
   237 r.241                -1906.18      -1954.28               
   238 r.242                -1777.94      -1933.02               
   239 r.243                 83.6168      -1954.28               
   240 r.244                  211.86      -1933.02               
   241 r.245                -34.6257      -1971.25               
   242 r.246                 -1951.9         -1957               
   243 r.247                 1955.17      -1971.25               
   244 r.248                  37.898         -1957               
   245 r.249                -57.3741      -1972.85               
   246 r.250                -1911.83      -1961.59               
   247 r.251                 1932.42      -1972.85               
   248 r.252                   77.97      -1961.59               

   No. Column name       Activity     Lower bound   Upper bound
------ ------------    ------------- ------------- -------------
     1 tt                    159.187             0               
     2 s_1_1        *              1             0             1 
     3 t_1_1                  131.59             0               
     4 s_1_6        *              0             0             1 
     5 s_2_1        *              0             0             1 
     6 t_2_1                 1860.51             0               
     7 s_2_6        *              1             0             1 
     8 s_1_2        *              1             0             1 
     9 t_1_2                 106.979             0               
    10 s_1_7        *              1             0             1 
    11 s_2_2        *              0             0             1 
    12 t_2_2                 1897.76             0               
    13 s_2_7        *              0             0             1 
    14 s_1_3        *              1             0             1 
    15 t_1_3                   64.26             0               
    16 s_2_3        *              0             0             1 
    17 t_2_3                 1936.02             0               
    18 s_1_4        *              0             0             1 
    19 t_1_4                 192.706             0               
    20 s_2_4        *              1             0             1 
    21 t_2_4                 109.979             0               
    22 s_1_5        *              0             0             1 
    23 t_1_5                 215.455             0               
    24 s_2_5        *              1             0             1 
    25 t_2_5                 69.9068             0               
    26 t_1_6                  131.59             0               
    27 t_2_6                       0             0               
    28 t_1_7                       0             0               
    29 t_2_7                 66.9068             0               
    30 s_1_8        *              1             0             1 
    31 t_1_8                 158.081             0               
    32 s_2_8        *              0             0             1 
    33 t_2_8                 2147.88             0               
    34 u_1_1_2      *              0             0             1 
    35 u_2_1_2      *              1             0             1 
    36 u_1_1_3      *              0             0             1 
    37 u_2_1_3      *              1             0             1 
    38 u_1_1_4      *              1             0             1 
    39 u_2_1_4      *              0             0             1 
    40 u_1_1_5      *              1             0             1 
    41 u_2_1_5      *              0             0             1 
    42 u_1_1_7      *              0             0             1 
    43 u_2_1_7      *              0             0             1 
    44 u_1_2_1      *              1             0             1 
    45 u_2_2_1      *              0             0             1 
    46 u_1_2_3      *              0             0             1 
    47 u_2_2_3      *              1             0             1 
    48 u_1_2_4      *              1             0             1 
    49 u_2_2_4      *              0             0             1 
    50 u_1_2_5      *              1             0             1 
    51 u_2_2_5      *              0             0             1 
    52 u_1_2_6      *              1             0             1 
    53 u_2_2_6      *              0             0             1 
    54 u_1_3_1      *              1             0             1 
    55 u_2_3_1      *              0             0             1 
    56 u_1_3_2      *              1             0             1 
    57 u_2_3_2      *              0             0             1 
    58 u_1_3_5      *              1             0             1 
    59 u_2_3_5      *              0             0             1 
    60 u_1_3_6      *              1             0             1 
    61 u_2_3_6      *              0             0             1 
    62 u_1_4_1      *              0             0             1 
    63 u_2_4_1      *              1             0             1 
    64 u_1_4_2      *              0             0             1 
    65 u_2_4_2      *              1             0             1 
    66 u_1_4_5      *              1             0             1 
    67 u_2_4_5      *              0             0             1 
    68 u_1_4_6      *              0             0             1 
    69 u_2_4_6      *              0             0             1 
    70 u_1_5_1      *              0             0             1 
    71 u_2_5_1      *              1             0             1 
    72 u_1_5_2      *              0             0             1 
    73 u_2_5_2      *              1             0             1 
    74 u_1_5_3      *              0             0             1 
    75 u_2_5_3      *              1             0             1 
    76 u_1_5_4      *              0             0             1 
    77 u_2_5_4      *              1             0             1 
    78 u_1_6_2      *              0             0             1 
    79 u_2_6_2      *              1             0             1 
    80 u_1_6_3      *              0             0             1 
    81 u_2_6_3      *              1             0             1 
    82 u_1_6_4      *              1             0             1 
    83 u_2_6_4      *              1             0             1 
    84 u_1_6_7      *              0             0             1 
    85 u_2_6_7      *              1             0             1 
    86 u_1_7_1      *              1             0             1 
    87 u_2_7_1      *              1             0             1 
    88 u_1_7_6      *              1             0             1 
    89 u_2_7_6      *              0             0             1 

Integer feasibility conditions:

KKT.PE: max.abs.err = 4.55e-13 on row 101
        max.rel.err = 1.10e-16 on row 102
        High quality

KKT.PB: max.abs.err = 2.27e-13 on row 30
        max.rel.err = 8.88e-15 on row 41
        High quality

End of output
